(set-option :smt.auto-config false)
(set-option :smt.mbqi false)
(set-option :sat.random_seed 488)
(set-option :smt.random_seed 599)
(set-option :nlsat.seed 611)
(set-option :memory_max_size 6000)
(declare-fun f (Bool Bool) Bool)
(declare-sort RegExStr 0)
(declare-sort RMode 0)
(assert (! (forall ((x0py0 Bool)(y0py0 Bool)) (! x0py0 :pattern ((f x0py0 y0py0)) )) :named A0))
(assert (! (forall ((x1py0 Bool)(y1py0 Bool)) (! (f x1py0 y1py0) :pattern ((f x1py0 y1py0)) )) :named A1))
